Comps = {frontend0, frontend1, backend0, backend1, database0, database1};
mustComps = {frontend0, frontend1};
Flavs = {tiny, medium, large};
Nodes = {n1, n2, n3};
CRes = {CPU, RAM, storage, bwIn, bwOut};
NRes = {ssl, fwall, encr, avail, latency};
Flav = [{medium, large}, {medium, large}, {tiny, medium, large}, {tiny, medium, large}, {large}, {large}];
Uses = array2d(CompFlavs, CompFlavs, [
	0,0,0,0,0,0,0,1,0,0,0,0,
	0,0,0,0,0,0,0,1,0,0,0,0,
	0,0,0,0,0,0,0,1,0,0,0,0,
	0,0,0,0,0,0,0,1,0,0,0,0,
	0,0,0,0,0,0,0,0,0,0,0,0,
	0,0,0,0,0,0,0,0,0,1,0,0,
	0,0,0,0,0,0,0,0,0,1,0,0,
	0,0,0,0,0,0,0,0,0,0,0,0,
	0,0,0,0,0,0,0,0,0,1,0,0,
	0,0,0,0,0,0,0,0,0,1,0,0,
	0,0,0,0,0,0,0,0,0,0,0,0,
	0,0,0,0,0,0,0,0,0,0,0,0,
]);
mayUse = array2d(Comps, CompFlavs, [
	0,0,0,0,0,0,0,0,0,0,0,0,
	0,0,0,0,0,0,0,0,0,0,0,0,
	0,0,0,0,0,0,0,0,0,0,0,0,
	1,1,1,1,0,1,1,0,1,1,0,0,
	0,0,0,0,0,0,0,0,0,0,0,0,
	0,0,0,0,0,0,0,0,0,0,0,0,
]);
MIN_RBOUNDS = 0;
MAX_RBOUNDS = 1000000;

worstBounds = [0, 0, 0, 0, 0, 0, 0, 0, 0, MAX_RBOUNDS];
bestBounds = [MAX_RBOUNDS - i | i in worstBounds];

comReq = array2d(CompFlavs, Res, [
  4, 483, 247, 277, 446, 1, 1, 0, 96, MAX_RBOUNDS,
  2, 403, 337, 776, 755, 0, 1, 1, 97, MAX_RBOUNDS,
  2, 379, 259, 793, 460, 0, 0, 0, 96, MAX_RBOUNDS,
  2, 347, 476, 876, 685, 1, 1, 1, 96, MAX_RBOUNDS,
  2, 481, 308, 675, 985, 1, 1, 1, 97, MAX_RBOUNDS,
  2, 492, 239, 904, 820, 0, 1, 1, 95, MAX_RBOUNDS,
  2, 313, 430, 886, 553, 0, 1, 1, 97, MAX_RBOUNDS,
  2, 366, 311, 955, 500, 0, 0, 1, 96, MAX_RBOUNDS,
  2, 320, 349, 726, 771, 1, 1, 1, 97, MAX_RBOUNDS,
  2, 387, 240, 207, 972, 1, 0, 1, 97, MAX_RBOUNDS,
  2, 476, 349, 739, 450, 0, 0, 0, 96, MAX_RBOUNDS,
  2, 304, 451, 942, 561, 1, 0, 1, 95, MAX_RBOUNDS,
]);

nodeCap = array2d(Nodes0, Res, [bestBounds[r] | r in Res] ++ [
  32, 115624, 41173, 10963, 20914, 1, 1, 1, 98, 0,
  8, 123997, 331222, 22321, 23759, 1, 1, 1, 98, 0,
  32, 55941, 172467, 10942, 19993, 1, 1, 1, 98, 0,
]);

cost = array2d(Nodes0, Res, [
  0, 0, 0, 0, 0, 0, 0, 0, 0, 0, % no node
  15, 8, 19, 0, 0, 0, 0, 0, 0, 0,
  13, 7, 23, 0, 0, 0, 0, 0, 0, 0,
  15, 10, 21, 0, 0, 0, 0, 0, 0, 0,
]);

carb = array2d(Nodes0, Res, [
  0, 0, 0, 0, 0, 0, 0, 0, 0, 0, % no node
  4, 14, 25, 0, 0, 0, 0, 0, 0, 0,
  2, 41, 16, 0, 0, 0, 0, 0, 0, 0,
  9, 12, 22, 0, 0, 0, 0, 0, 0, 0,
]);

costBudget = 44416;
carbBudget = 57032;

depReq = array4d(Comps, Flavs, Comps, Res, [
  if c1 = frontend0 /\ c2 = backend1 /\ r = N(avail) then
    95
  elseif c1 = frontend1 /\ c2 = backend1 /\ r = N(avail) then
    95
  elseif c1 = frontend1 /\ c2 = backend0 /\ r = N(avail) then
    97
  elseif c1 = frontend0 /\ c2 = backend0 /\ r = N(avail) then
    95
  else
    worstBounds[r]
  endif | c1 in Comps, i in Flavs, c2 in Comps, r in Res]);

linkCap = array3d(Nodes0, Nodes0, Res, [
  if ni = 0 \/ nj = 0 then
    bestBounds[r]
  elseif ni = nj /\ r = N(avail) then
    nodeCap[ni,r]
  elseif {ni, nj} = {n1, n3} /\ r = N(avail) then
    98
  elseif {ni, nj} = {n1, n2} /\ r = N(avail) then
    98
  elseif {ni, nj} = {n2, n3} /\ r = N(avail) then
    98
  else
    worstBounds[r]
  endif | ni in Nodes0, nj in Nodes0, r in Res]);

imp = array2d(Comps, Flavs, [
  1, 4, 6,
  4, 5, 8,
  1, 6, 8,
  4, 5, 6,
  1, 4, 5,
  7, 8, 9,
]);

